p cnf 150 30
x 1 -3 4 -13 16 -17 19 20 21 22 -24 26 29 33 34 -35 37 -41 45 -46 -50 -53 -54 -55 58 -59 61 62 -64 -66 -67 68 70 -73 74 76 -77 -80 81 -85 -87 -91 92 -94 96 -98 101 102 -103 -105 -106 108 111 -112 -115 -116 117 120 123 -124 -125 -126 -128 130 -131 -133 -135 138 139 142 -144 146 -147 149 0
x -1 -2 3 5 -6 7 -12 13 -14 -15 16 19 21 -22 25 27 32 34 35 -36 37 39 41 -43 -46 47 -51 -54 -56 -57 -58 59 -60 -63 -65 -68 -69 70 71 -72 -73 74 78 -79 80 84 -89 -91 -92 -94 97 -99 100 101 -102 -103 105 -107 111 -112 -113 -114 116 118 -119 120 121 122 123 -124 126 128 -129 -130 -131 -132 -135 136 -139 140 -141 -145 146 -148 -150 0
x 2 -3 -4 -7 -8 10 12 14 19 -20 -24 25 -26 -27 30 -31 -32 -34 -36 -39 40 42 44 -45 46 47 51 -52 -53 -60 62 67 -69 71 73 75 -78 -80 81 -82 -83 88 -90 -91 -92 -93 96 97 -99 -101 -102 103 106 107 108 -110 -112 113 -115 -117 118 -119 -123 -125 126 127 129 -134 135 -138 -139 141 -143 -144 -146 -149 -150 0
x -1 2 -3 -4 -6 -9 11 14 15 17 -20 -21 22 -23 -24 25 26 27 28 30 -31 -32 -37 38 39 45 47 -49 -57 -58 -59 -62 64 65 -69 77 -80 84 -85 86 -88 -90 -91 -92 95 -99 -100 -107 -108 109 110 -111 113 -115 116 117 -118 119 -124 125 130 132 -135 136 137 139 141 142 145 146 147 148 150 0
x 1 3 -4 5 -6 -8 9 10 -11 -13 -14 -15 -16 -17 -20 -21 24 27 -28 -29 31 32 -33 -37 38 -40 -42 44 46 48 -50 -51 52 -53 -56 57 -59 60 64 -65 70 71 72 -73 74 75 -76 -77 78 -82 84 86 88 -89 90 -93 96 -97 -98 99 101 103 -104 108 -110 111 116 117 -118 -119 120 121 -123 125 -126 -127 128 129 133 -134 -135 137 140 -144 -147 148 149 -150 0
x -4 -6 -7 -8 -13 15 -18 19 23 24 25 30 -31 32 -33 37 38 39 40 41 43 -45 -46 -48 49 -50 53 54 55 57 58 59 60 61 63 64 66 -70 -72 73 -75 78 -81 -83 86 89 -91 -93 -96 99 -103 105 106 -107 108 -109 -112 113 115 -116 120 121 123 -124 127 129 -130 132 -133 -135 137 138 -141 -142 143 145 146 147 148 149 -150 0
x -3 -4 -6 -7 9 11 12 13 -14 15 16 20 22 23 -24 27 -28 -30 -31 -32 33 -35 -42 44 46 -47 -48 -51 52 -55 57 -58 -62 64 65 -66 -72 75 76 77 78 81 -82 84 -85 86 -88 89 91 -93 -95 -96 -100 102 -107 108 112 113 114 -117 -118 120 -121 123 -125 -127 132 133 -134 135 -138 140 146 148 -149 150 0
x 1 2 3 -5 9 -10 -13 14 -15 18 -20 -22 -24 -26 -27 -28 -29 -31 -34 -36 37 38 41 -42 -44 45 -49 -53 56 58 59 61 62 -66 67 -69 71 72 74 75 -76 -78 83 -84 -91 92 -94 95 97 -98 99 101 103 106 -108 109 -111 -112 -113 -116 120 -121 124 -125 -130 -137 -139 -140 -143 -148 -149 0
x -2 4 8 -9 10 -14 -20 22 25 -27 28 -30 31 35 -37 41 43 -44 48 -50 51 -53 54 -55 56 57 -58 59 -60 62 64 65 -68 69 70 -71 72 74 75 76 80 -82 84 86 87 88 -89 -91 92 94 97 102 103 105 109 110 -111 -113 -121 122 -123 -124 125 -126 127 129 -130 131 135 -138 139 142 -143 -145 -146 -148 -149 0
x 1 -3 4 -10 11 -12 -15 -17 18 22 25 -26 27 28 -29 31 32 -33 34 35 37 38 39 42 43 44 46 -51 -53 56 -57 58 59 62 64 -67 -71 -72 73 -76 -79 84 85 -86 -87 88 -89 -90 91 92 93 -94 95 96 -97 99 -101 109 -112 113 -116 -117 119 -121 122 -123 -124 126 -131 -132 133 -134 -136 -140 -142 -144 145 149 -150 0
x 3 4 5 7 8 -9 13 -14 -16 -18 -19 20 -22 23 -24 -25 -29 -30 -31 32 -33 34 35 37 -38 41 43 -44 -46 -49 -53 -56 57 -61 -69 -71 72 73 -75 -79 80 82 83 87 88 90 -91 -92 -93 101 102 -109 -110 111 120 121 -125 128 -130 131 -132 136 137 -139 145 -146 147 -148 -149 0
x 4 12 -13 -16 17 20 -24 25 -28 29 31 -32 -33 -35 37 -38 -41 42 -43 47 48 -51 52 -57 -64 66 68 69 -70 72 -73 -75 -76 -77 -81 82 84 86 88 -91 92 93 95 96 -97 98 -99 -102 103 -105 106 107 110 111 -112 -113 114 -115 -116 -118 -119 122 123 -126 -127 -129 132 133 135 139 141 -143 146 -147 149 -150 0
x -6 11 -12 14 -19 21 22 -24 -28 -33 -34 -36 -43 44 -45 -46 -47 51 -53 -54 -55 56 57 59 -60 -62 63 -64 65 -66 67 68 -69 -70 71 72 -75 76 -81 -86 88 -89 90 -91 -92 93 -94 -98 -99 100 103 104 -105 -106 113 114 115 116 -117 -118 119 121 122 -125 -126 127 128 129 136 138 139 140 -142 143 -145 146 147 148 -149 -150 0
x 1 2 -4 8 10 -11 -12 -13 14 -16 17 19 21 -22 -24 26 28 30 31 33 34 38 -41 -43 -44 46 50 -51 52 -54 56 -64 65 -67 -68 -71 72 -75 -77 78 -80 82 -83 -87 88 89 -90 -93 97 100 -101 -106 -107 112 113 -114 115 -117 118 -122 123 -124 -128 129 -130 131 132 133 -134 -135 137 -143 144 145 -146 -148 149 0
x 1 -2 6 -7 -9 -10 11 13 14 -18 22 24 26 -28 -29 -35 -37 -40 -43 -46 -48 -49 -53 -55 -57 -58 59 60 62 -63 65 -67 -70 -72 75 78 80 81 -82 -88 92 -93 97 101 103 104 -105 -107 -109 -110 111 -112 113 114 -116 -119 120 -122 124 126 -128 -131 -132 133 -134 -136 137 -138 -139 142 143 146 -147 -149 0
x 1 2 -5 7 8 13 17 -18 23 -24 -25 32 -34 35 -36 -37 38 42 -45 -47 -51 -52 -53 55 56 58 60 -61 62 63 67 -69 70 71 72 73 -76 78 80 -81 83 85 88 -89 -90 -95 96 97 -98 -99 101 105 -107 109 -110 112 -113 118 120 -122 123 127 -128 -129 130 -132 133 -135 -136 138 -141 -142 144 145 146 -147 148 -149 0
x -1 2 4 5 -6 -10 -11 -15 -18 20 23 25 -28 -29 32 -35 37 -40 41 45 -47 -48 49 -50 51 -52 53 54 -55 56 60 62 63 66 68 69 -72 -75 76 77 80 -82 84 -86 87 -88 90 92 -93 94 95 96 -99 -100 -105 106 107 -110 111 114 116 118 -119 -120 124 -125 129 -130 135 136 -138 141 145 146 -150 0
x -1 -2 -4 -5 -6 -10 11 13 -14 -18 21 22 26 27 28 -32 36 38 43 -44 -45 46 47 -48 49 -51 -53 54 56 57 -59 60 -62 63 -69 -70 77 -78 -79 80 -84 85 86 -87 -89 -90 98 99 -100 101 105 -106 -107 -110 111 -114 115 118 -120 121 122 -123 -124 -127 128 129 130 131 -133 139 142 -144 145 -146 0
x 2 3 7 -8 9 10 -11 -12 -14 -15 16 17 18 -19 -21 -24 -26 30 31 32 -33 36 -41 44 -46 50 -51 -52 53 55 58 -62 64 67 -69 -70 74 75 77 78 -79 80 -83 -84 -91 -92 -93 95 100 102 -105 -108 109 110 114 116 -117 123 -125 -130 131 -132 134 136 -140 142 144 -145 149 -150 0
x 1 2 -3 5 6 7 15 -17 -21 -22 -23 -25 27 -28 29 -30 32 -33 34 -35 -38 -40 -43 -45 -46 -50 52 54 56 58 61 62 65 -66 67 -68 -69 71 -72 74 -75 76 77 -80 81 -82 -84 86 -89 -91 -92 94 -98 101 -102 -104 -105 -106 110 -112 -115 -116 119 120 -124 125 -126 128 129 132 -133 -134 -135 -136 -137 -138 -140 141 0
x 4 -8 10 -12 18 -20 -24 -25 -26 27 -29 33 -35 -36 -38 39 -40 41 45 50 52 53 57 61 -64 -65 70 71 73 74 -80 -81 -84 85 -88 89 -91 98 101 102 104 -105 -106 -108 111 -112 -114 115 -119 -120 -124 -125 -126 -128 -130 -131 132 133 -134 -136 -137 -138 -139 140 143 -146 147 149 0
x -3 4 -6 7 10 -11 12 15 -17 -20 22 -23 26 -27 28 30 -32 -34 -35 36 38 -41 -44 46 50 -51 -54 -57 -61 -63 -67 -71 -75 82 83 84 87 88 -89 -91 -92 93 -94 96 -97 -99 102 -103 105 -108 109 114 115 -116 -117 -119 -121 -122 -127 -129 -130 131 -136 -142 146 147 -148 0
x 1 3 -5 7 -8 -10 12 -13 14 18 -19 -20 21 -22 25 27 29 30 31 -34 35 36 -37 38 -39 -40 -42 45 -47 49 -50 -52 54 55 59 -60 61 -65 -67 -72 -73 74 75 -76 77 -78 79 80 -82 83 -87 -88 89 91 -93 96 97 98 -101 -102 -103 -105 -106 -109 112 113 116 117 120 121 122 123 130 -132 137 -138 -143 145 -147 -149 -150 0
x -4 -7 -8 -10 -15 -16 -17 18 19 21 22 -25 33 -35 36 37 41 -42 43 -45 -52 -53 -56 -61 -63 -66 67 -68 71 72 -78 79 -80 81 -84 87 88 92 -94 -95 -97 -98 99 -101 -102 -104 111 112 113 -115 117 -119 -120 -122 -123 124 125 126 128 130 -131 132 -133 -136 -137 -143 144 145 -146 -147 150 0
x -3 4 8 12 -13 -14 15 20 -21 -23 26 27 -28 29 -31 32 -33 -37 38 39 -40 42 -44 -45 46 -48 49 -50 54 56 58 -59 -61 -64 -66 -71 73 74 76 -77 -79 80 82 -84 -85 -88 -89 -90 -92 -93 -94 -95 -101 -103 108 -110 111 116 -117 -118 119 121 122 -125 127 -132 -133 135 136 138 139 -142 -143 144 -146 -150 0
x -1 2 3 5 -6 7 8 -13 -14 19 -20 -25 -28 -30 -31 -34 -35 -40 44 46 -48 -49 -51 57 59 60 -61 -62 -64 66 -71 -73 -74 78 -79 80 81 -82 84 85 87 88 -90 -92 94 95 96 97 -99 -100 102 -103 -104 106 -109 -113 116 117 -119 -120 121 -123 -124 125 -127 128 -131 134 -135 -136 -141 -143 144 -145 -146 147 -148 -149 -150 0
x 1 3 -5 -8 -9 -11 -12 -15 -16 -17 -18 19 22 23 -25 28 30 31 -32 35 36 37 38 -40 41 42 -44 45 48 52 -53 54 55 56 58 -59 -60 66 67 -69 74 75 76 -78 -79 -83 89 92 -93 96 -98 101 -105 106 -108 -109 112 117 -119 120 121 -124 125 -127 128 130 131 -132 133 -135 136 -137 139 -141 142 143 -146 -149 150 0
x -2 -4 -5 -7 -10 -14 18 -19 20 22 23 -25 26 29 30 31 -33 34 -40 -42 -43 -44 46 -49 50 52 -53 -54 -55 56 57 58 -59 60 61 -62 64 -66 67 68 74 75 -78 -83 -84 -85 -87 -89 -90 92 94 -95 -96 -97 98 -100 101 -103 -104 105 -106 108 -109 111 -112 -115 116 -120 -122 123 -128 -129 131 132 133 135 136 -138 141 145 -148 -149 0
x 2 3 5 -6 -9 11 -12 -13 -14 16 -17 23 -25 27 -29 31 32 -35 41 -42 43 -47 -52 54 55 56 57 58 60 -61 -62 -63 64 65 -66 69 70 72 -74 -79 82 85 87 91 92 96 100 107 115 117 118 -119 -120 -121 123 -128 -129 -130 -131 135 137 -139 -140 -141 -142 -144 -145 -146 148 -149 150 0
x -1 2 -4 5 -6 -8 9 -10 -12 -15 -17 18 -21 23 27 29 -30 -37 38 -39 -40 -43 44 -45 49 50 51 -52 -53 -55 -57 -58 60 -61 -64 65 66 71 72 -73 -76 -77 -80 83 -85 -87 88 90 -91 -93 98 101 -102 106 107 -108 -109 -114 115 116 -121 -126 -131 -132 -136 -139 -140 -142 -143 144 -145 147 149 -150 0
g -60